(set-logic QF_S)
(set-option :parse-transducers true)
(set-option :produce-models true)
(define-fun-rec toLower ((x String) (y String)) Bool
   (or (and (= x "") (= y ""))
       (and (not (= x "")) (not (= y ""))
           (= (char.code (str.head y))
               (ite (and (<= 65 (char.code (str.head x)))
                       (<= (char.code (str.head x)) 90))
                   (+ (char.code (str.head x)) 32)
                   (char.code (str.head x))))
           (toLower (str.tail x) (str.tail y))))
)
(declare-fun sym205 () String)
(assert (<= (str.len sym205) 11))
(declare-fun sym328 () String)
(assert (<= (str.len sym328) 11))
(declare-fun sym605 () String)
(assert (<= (str.len sym605) 11))
(declare-fun sym729 () String)
(assert (<= (str.len sym729) 11))
(declare-fun sym363 () String)
(assert (<= (str.len sym363) 11))
(declare-fun sym683 () String)
(assert (<= (str.len sym683) 11))
(declare-fun sym443 () String)
(assert (<= (str.len sym443) 11))
(declare-fun sym289 () String)
(assert (<= (str.len sym289) 11))
(declare-fun sym763 () String)
(assert (<= (str.len sym763) 11))
(declare-fun sym489 () String)
(assert (<= (str.len sym489) 11))
(declare-fun sym523 () String)
(assert (<= (str.len sym523) 11))
(declare-fun sym160 () String)
(assert (<= (str.len sym160) 11))
(declare-fun sym338 () String)
(assert (<= (str.len sym338) 11))
(declare-fun sym739 () String)
(assert (<= (str.len sym739) 11))
(declare-fun sym619 () String)
(assert (<= (str.len sym619) 11))
(declare-fun sym571 () String)
(assert (<= (str.len sym571) 11))
(declare-fun sym175 () String)
(assert (<= (str.len sym175) 11))
(declare-fun sym254 () String)
(assert (<= (str.len sym254) 11))
(declare-fun sym299 () String)
(assert (<= (str.len sym299) 11))
(declare-fun sym453 () String)
(assert (<= (str.len sym453) 11))
(declare-fun sym377 () String)
(assert (<= (str.len sym377) 11))
(declare-fun sym135 () String)
(assert (<= (str.len sym135) 11))
(declare-fun sym773 () String)
(assert (<= (str.len sym773) 11))
(declare-fun sym653 () String)
(assert (<= (str.len sym653) 11))
(declare-fun sym499 () String)
(assert (<= (str.len sym499) 11))
(declare-fun sym533 () String)
(assert (<= (str.len sym533) 11))
(declare-fun sym699 () String)
(assert (<= (str.len sym699) 11))
(declare-fun sym215 () String)
(assert (<= (str.len sym215) 11))
(declare-fun sym413 () String)
(assert (<= (str.len sym413) 11))
(declare-fun sym709 () String)
(assert (<= (str.len sym709) 11))
(declare-fun sym469 () String)
(assert (<= (str.len sym469) 11))
(declare-fun sym20 () String)
(assert (<= (str.len sym20) 11))
(declare-fun sym629 () String)
(assert (<= (str.len sym629) 11))
(declare-fun sym509 () String)
(assert (<= (str.len sym509) 11))
(declare-fun sym264 () String)
(assert (<= (str.len sym264) 11))
(declare-fun sym387 () String)
(assert (<= (str.len sym387) 11))
(declare-fun sym663 () String)
(assert (<= (str.len sym663) 11))
(declare-fun sym543 () String)
(assert (<= (str.len sym543) 11))
(declare-fun sym225 () String)
(assert (<= (str.len sym225) 11))
(declare-fun sym423 () String)
(assert (<= (str.len sym423) 11))
(declare-fun sym581 () String)
(assert (<= (str.len sym581) 11))
(declare-fun sym185 () String)
(assert (<= (str.len sym185) 11))
(declare-fun sym719 () String)
(assert (<= (str.len sym719) 11))
(declare-fun sym557 () String)
(assert (<= (str.len sym557) 11))
(declare-fun sym239 () String)
(assert (<= (str.len sym239) 11))
(declare-fun sym639 () String)
(assert (<= (str.len sym639) 11))
(declare-fun sym595 () String)
(assert (<= (str.len sym595) 11))
(declare-fun sym353 () String)
(assert (<= (str.len sym353) 11))
(declare-fun sym397 () String)
(assert (<= (str.len sym397) 11))
(declare-fun sym673 () String)
(assert (<= (str.len sym673) 11))
(declare-fun sym113 () String)
(assert (<= (str.len sym113) 11))
(declare-fun sym279 () String)
(assert (<= (str.len sym279) 11))
(declare-fun sym433 () String)
(assert (<= (str.len sym433) 11))
(declare-fun sym753 () String)
(assert (<= (str.len sym753) 11))
(declare-fun sym313 () String)
(assert (<= (str.len sym313) 11))
(declare-fun sym479 () String)
(assert (<= (str.len sym479) 11))
(declare-fun sym150 () String)
(assert (<= (str.len sym150) 11))
(declare-fun sym195 () String)
(assert (<= (str.len sym195) 11))
(declare-fun L106  () String)
(declare-fun L43  () String)
(declare-fun L11  () String)
(declare-fun L55  () String)
(declare-fun L3  () String)
(declare-fun L71  () String)
(declare-fun L110  () String)
(declare-fun L114  () String)
(declare-fun L38  () String)
(declare-fun L18  () String)
(declare-fun L34  () String)
(declare-fun L78  () String)
(declare-fun L46  () String)
(declare-fun L14  () String)
(declare-fun L58  () String)
(declare-fun L26  () String)
(declare-fun L30  () String)
(declare-fun L74  () String)
(declare-fun L8  () String)
(declare-fun L42  () String)
(declare-fun L86  () String)
(declare-fun L10  () String)
(declare-fun L54  () String)
(declare-fun L98  () String)
(declare-fun L22  () String)
(declare-fun L66  () String)
(declare-fun L70  () String)
(declare-fun L4  () String)
(declare-fun L82  () String)
(declare-fun L50  () String)
(declare-fun L94  () String)
(declare-fun L62  () String)
(declare-fun L0  () String)
(declare-fun L103  () String)
(declare-fun L90  () String)
(declare-fun L25  () String)
(declare-fun L5  () String)
(declare-fun L108  () String)
(declare-fun L1  () String)
(declare-fun L100  () String)
(declare-fun L112  () String)
(declare-fun L16  () String)
(declare-fun L28  () String)
(declare-fun L12  () String)
(declare-fun L56  () String)
(declare-fun L24  () String)
(declare-fun L68  () String)
(declare-fun L36  () String)
(declare-fun L48  () String)
(declare-fun L52  () String)
(declare-fun L96  () String)
(declare-fun L20  () String)
(declare-fun L64  () String)
(declare-fun L32  () String)
(declare-fun L76  () String)
(declare-fun L6  () String)
(declare-fun L44  () String)
(declare-fun L88  () String)
(declare-fun L92  () String)
(declare-fun L60  () String)
(declare-fun L72  () String)
(declare-fun L2  () String)
(declare-fun L40  () String)
(declare-fun L84  () String)
(declare-fun L80  () String)
(declare-fun L101  () String)
(define-fun Alphabet () RegLan 
	(re.* (re.union (str.to_re "A") (str.to_re "B") (str.to_re "C") (str.to_re "D") (str.to_re "E") (str.to_re "F") (str.to_re "G") (str.to_re "H") (str.to_re "I") (str.to_re "J") (str.to_re "K") (str.to_re "L") (str.to_re "M") (str.to_re "N") (str.to_re "O") (str.to_re "P") (str.to_re "Q") (str.to_re "R") (str.to_re "S") (str.to_re "T") (str.to_re "U") (str.to_re "V") (str.to_re "W") (str.to_re "X") (str.to_re "Y") (str.to_re "Z") (str.to_re "a") (str.to_re "b") (str.to_re "c") (str.to_re "d") (str.to_re "e") (str.to_re "f") (str.to_re "g") (str.to_re "h") (str.to_re "i") (str.to_re "j") (str.to_re "k") (str.to_re "l") (str.to_re "m") (str.to_re "n") (str.to_re "o") (str.to_re "p") (str.to_re "q") (str.to_re "r") (str.to_re "s") (str.to_re "t") (str.to_re "u") (str.to_re "v") (str.to_re "w") (str.to_re "x") (str.to_re "y") (str.to_re "z") ))
)
(assert (toLower sym413  L101 ))
(assert (toLower sym605  L80 ))
(assert (toLower sym338  L84 ))
(assert (toLower sym353  L40 ))
(assert (toLower sym509  L2 ))
(assert (toLower sym773  L72 ))
(assert (toLower sym523  L60 ))
(assert (toLower sym619  L92 ))
(assert (toLower sym363  L88 ))
(assert (toLower sym557  L44 ))
(assert (toLower sym377  L6 ))
(assert (toLower sym433  L76 ))
(assert (toLower sym489  L32 ))
(assert (toLower sym709  L64 ))
(assert (toLower sym443  L20 ))
(assert (toLower sym719  L96 ))
(assert (toLower sym753  L52 ))
(assert (toLower sym763  L48 ))
(assert (toLower sym729  L36 ))
(assert (toLower sym313  L68 ))
(assert (toLower sym673  L24 ))
(assert (toLower sym571  L56 ))
(assert (toLower sym479  L12 ))
(assert (toLower sym264  L28 ))
(assert (toLower sym205  L16 ))
(assert (toLower sym453  L112 ))
(assert (toLower sym20  L100 ))
(assert (toLower "length"  L1 ))
(assert (toLower sym387  L108 ))
(assert (toLower "name"  L5 ))
(assert (toLower "type"  L25 ))
(assert (toLower sym328  L90 ))
(assert (toLower sym423  L103 ))
(assert (toLower sym683  L0 ))
(assert (toLower sym653  L62 ))
(assert (toLower sym739  L94 ))
(assert (toLower sym699  L50 ))
(assert (toLower sym185  L82 ))
(assert (toLower sym239  L4 ))
(assert (toLower sym225  L70 ))
(assert (toLower sym397  L66 ))
(assert (toLower sym469  L22 ))
(assert (toLower sym215  L98 ))
(assert (toLower sym113  L54 ))
(assert (toLower sym533  L10 ))
(assert (toLower sym299  L86 ))
(assert (toLower sym543  L42 ))
(assert (toLower sym254  L8 ))
(assert (toLower sym499  L74 ))
(assert (toLower sym135  L30 ))
(assert (toLower sym279  L26 ))
(assert (toLower sym289  L58 ))
(assert (toLower sym595  L14 ))
(assert (toLower sym150  L46 ))
(assert (toLower sym195  L78 ))
(assert (toLower sym639  L34 ))
(assert (toLower sym160  L18 ))
(assert (toLower sym581  L38 ))
(assert (toLower sym629  L114 ))
(assert (toLower sym175  L110 ))
(assert (toLower "table"  L71 ))
(assert (toLower "option"  L3 ))
(assert (toLower "database"  L55 ))
(assert (toLower "description"  L11 ))
(assert (toLower "field"  L43 ))
(assert (toLower sym663  L106 ))

(assert (str.in_re sym195 Alphabet))
(assert (str.in_re sym150 Alphabet))
(assert (str.in_re sym479 Alphabet))
(assert (str.in_re sym313 Alphabet))
(assert (str.in_re sym753 Alphabet))
(assert (str.in_re sym433 Alphabet))
(assert (str.in_re sym279 Alphabet))
(assert (str.in_re sym113 Alphabet))
(assert (str.in_re sym673 Alphabet))
(assert (str.in_re sym397 Alphabet))
(assert (str.in_re sym353 Alphabet))
(assert (str.in_re sym595 Alphabet))
(assert (str.in_re sym639 Alphabet))
(assert (str.in_re sym239 Alphabet))
(assert (str.in_re sym557 Alphabet))
(assert (str.in_re sym719 Alphabet))
(assert (str.in_re sym185 Alphabet))
(assert (str.in_re sym581 Alphabet))
(assert (str.in_re sym423 Alphabet))
(assert (str.in_re sym225 Alphabet))
(assert (str.in_re sym543 Alphabet))
(assert (str.in_re sym663 Alphabet))
(assert (str.in_re sym387 Alphabet))
(assert (str.in_re sym264 Alphabet))
(assert (str.in_re sym509 Alphabet))
(assert (str.in_re sym629 Alphabet))
(assert (str.in_re sym20 Alphabet))
(assert (str.in_re sym469 Alphabet))
(assert (str.in_re sym709 Alphabet))
(assert (str.in_re sym413 Alphabet))
(assert (str.in_re sym215 Alphabet))
(assert (str.in_re sym699 Alphabet))
(assert (str.in_re sym533 Alphabet))
(assert (str.in_re sym499 Alphabet))
(assert (str.in_re sym653 Alphabet))
(assert (str.in_re sym773 Alphabet))
(assert (str.in_re sym135 Alphabet))
(assert (str.in_re sym377 Alphabet))
(assert (str.in_re sym453 Alphabet))
(assert (str.in_re sym299 Alphabet))
(assert (str.in_re sym254 Alphabet))
(assert (str.in_re sym175 Alphabet))
(assert (str.in_re sym571 Alphabet))
(assert (str.in_re sym619 Alphabet))
(assert (str.in_re sym739 Alphabet))
(assert (str.in_re sym338 Alphabet))
(assert (str.in_re sym160 Alphabet))
(assert (str.in_re sym523 Alphabet))
(assert (str.in_re sym489 Alphabet))
(assert (str.in_re sym763 Alphabet))
(assert (str.in_re sym289 Alphabet))
(assert (str.in_re sym443 Alphabet))
(assert (str.in_re sym683 Alphabet))
(assert (str.in_re sym363 Alphabet))
(assert (str.in_re sym729 Alphabet))
(assert (str.in_re sym605 Alphabet))
(assert (str.in_re sym328 Alphabet))
(assert (str.in_re sym205 Alphabet))
(assert (= L0 L1 ))
(assert (= L2 L3 ))
(assert (= L4 L5 ))
(assert (not (= L6 L5 )))
(assert (not (= L8 L5 )))
(assert (not (= L10 L11 )))
(assert (not (= L12 L11 )))
(assert (not (= L14 L5 )))
(assert (not (= L16 L5 )))
(assert (= L18 L11 ))
(assert (not (= L20 L1 )))
(assert (not (= L22 L5 )))
(assert (not (= L24 L25 )))
(assert (not (= L26 L5 )))
(assert (= L28 L11 ))
(assert (= L30 L5 ))
(assert (not (= L32 L25 )))
(assert (= L34 L25 ))
(assert (not (= L36 L1 )))
(assert (= L38 L11 ))
(assert (not (= L40 L5 )))
(assert (= L42 L43 ))
(assert (= L44 L5 ))
(assert (not (= L46 L5 )))
(assert (not (= L48 L11 )))
(assert (not (= L50 L5 )))
(assert (not (= L52 L5 )))
(assert (= L54 L55 ))
(assert (not (= L56 L5 )))
(assert (not (= L58 L11 )))
(assert (not (= L60 L5 )))
(assert (not (= L62 L5 )))
(assert (not (= L64 L11 )))
(assert (= L66 L25 ))
(assert (= L68 L5 ))
(assert (= L70 L71 ))
(assert (not (= L72 L43 )))
(assert (not (= L74 L1 )))
(assert (not (= L76 L25 )))
(assert (not (= L78 L71 )))
(assert (= L80 L11 ))
(assert (not (= L82 L11 )))
(assert (= L84 L11 ))
(assert (= L86 L43 ))
(assert (= L88 L11 ))
(assert (not (= L90 L5 )))
(assert (not (= L92 L5 )))
(assert (= L94 L3 ))
(assert (not (= L96 L25 )))
(assert (not (= L98 L11 )))
(assert (not (= L100 "sql" )))
(assert (not (= L101 L5 )))
(assert (not (= L103 L11 )))
(assert (= L100 "html" ))
(assert (not (= L106 L11 )))
(assert (not (= L108 L11 )))
(assert (not (= L110 L5 )))
(assert (= L112 L3 ))
(assert (not (= L114 L11 )))
(check-sat)
(get-model)
(exit)
